n_res = 4;
rc = [ 14, 12, 14, 13 ];
n_tasks = 30;
d = [ 1, 7, 6, 7, 4, 10, 4, 6, 9, 6, 9, 4, 8, 7, 3, 2, 8, 1, 1, 8, 6, 4, 6, 2, 9, 6, 10, 8, 7, 4 ];
rr = [| 14, 14, 14, 14, 14, 14, 14, 14, 14, 14, 14, 14, 14, 14, 14, 14, 14, 14, 14, 14, 14, 14, 14, 14, 14, 14, 14, 14, 14, 14
      | 12, 12, 12, 12, 12, 12, 12, 12, 12, 12, 12, 12, 12, 12, 12, 12, 12, 12, 12, 12, 12, 12, 12, 12, 12, 12, 12, 12, 12, 12
      | 14, 14, 14, 14, 14, 14, 14, 14, 14, 14, 14, 14, 14, 14, 14, 14, 14, 14, 14, 14, 14, 14, 14, 14, 14, 14, 14, 14, 14, 14
      | 13, 13, 13, 13, 13, 13, 13, 13, 13, 13, 13, 13, 13, 13, 13, 13, 13, 13, 13, 13, 13, 13, 13, 13, 13, 13, 13, 13, 13, 13|];
suc = [ { 8 },
       { 5, 17, 22 },
       { 4, 11 },
       { 7, 9, 10 },
       { 6 },
       { 11, 29 },
       { 14, 19, 27 },
       { 10, 12 },
       { 12, 15, 19 },
       { 13, 21 },
       { 24 },
       { 13, 16, 18 },
       { 17, 26, 28 },
       { 17, 21 },
       { 16, 24, 25 },
       { 20, 23 },
       { 29 },
       { 20, 23, 24 },
       { 30 },
       { 28 },
       { 22, 25 },
       { 23, 26 },
       { 29 },
       { 27, 30 },
       { 26 },
       { 30 },
       { 28 },
       {  },
       {  },
       {  } ];
